17	4
15	14	12	12	
0	0	0	0	0	3	2	3	4	
3	0	0	9	0	2	10	17	
9	0	7	0	0	3	5	14	17	
4	9	0	0	2	2	6	7	
10	10	3	3	10	2	8	15	
225	0	0	8	4	2	9	17	
50	2	6	1	0	1	17	
100	8	0	8	4	3	11	16	17	
100	0	0	4	0	1	12	
250	0	0	8	0	2	13	17	
175	10	0	0	0	1	13	
175	0	2	5	6	2	14	17	
1	3	0	0	0	2	17	17	
6	0	10	8	0	1	17	
7	0	1	5	1	1	17	
1	0	1	0	5	1	17	
0	0	0	0	0	0	
